data;
param n:=50;
param w:=1 -146 2 -132 3 170 4 111 5 -142 6 185 7 231 8 -165 9 214 10 -218 11 -7 12 -53 13 7 14 32 15 37 16 -169 17 56 18 -185 19 -3 20 207 21 37 22 -259 23 -131 24 -48 25 130 26 208 27 -209 28 105 29 89 30 223 31 214 32 114 33 -211 34 48 35 3 36 189 37 221 38 -177 39 11 40 65 41 -130 42 -22 43 -240 44 -103 45 -175 46 -251 47 116 48 79 49 87 50 -13;
